% seed = 2356251

mint = 58;
% maxt = 227;

nActs = 42;
dur = [0,4,8,6,1,2,7,2,10,6,1,9,5,7,10,9,10,5,1,9,2,2,10,6,9,6,1,8,1,9,1,4,2,4,10,9,3,8,7,3,10,0];

nSkills = 4;
sreq = [| 0,0,0,0,
	| 2,4,2,0,
	| 7,2,0,5,
	| 0,6,2,2,
	| 2,4,0,4,
	| 2,6,0,6,
	| 0,3,7,3,
	| 6,0,4,5,
	| 0,3,6,7,
	| 5,0,6,2,
	| 0,5,3,3,
	| 0,5,5,4,
	| 0,7,2,4,
	| 6,0,5,7,
	| 0,4,3,7,
	| 3,2,3,0,
	| 2,6,5,0,
	| 0,4,2,2,
	| 6,4,3,0,
	| 5,3,1,0,
	| 3,2,3,0,
	| 7,0,6,7,
	| 2,5,4,0,
	| 5,5,4,0,
	| 3,3,3,0,
	| 5,4,0,2,
	| 0,2,3,3,
	| 0,3,4,5,
	| 6,4,5,0,
	| 1,0,3,2,
	| 0,5,4,2,
	| 6,3,0,3,
	| 7,0,2,3,
	| 2,4,3,0,
	| 3,0,5,5,
	| 3,3,3,0,
	| 3,4,0,4,
	| 0,4,5,5,
	| 7,0,5,3,
	| 0,5,4,3,
	| 0,4,5,5,
	| 0,0,0,0, |];

nResources = 30;
mastery = [| false,false,false,true,
	| true,false,true,false,
	| true,true,true,false,
	| false,true,false,false,
	| false,false,false,true,
	| false,true,false,true,
	| true,true,false,true,
	| true,false,true,false,
	| true,false,false,false,
	| true,true,false,true,
	| true,true,true,false,
	| false,true,true,true,
	| true,false,true,false,
	| true,true,true,false,
	| false,false,false,true,
	| false,false,true,false,
	| true,true,false,false,
	| false,true,false,false,
	| false,false,true,false,
	| false,true,false,true,
	| false,true,false,true,
	| false,true,true,false,
	| true,true,true,false,
	| true,true,true,false,
	| true,true,true,false,
	| false,false,false,true,
	| false,false,false,true,
	| true,false,false,true,
	| true,false,false,true,
	| false,false,true,false, |];

nPrecs = 85;
pred = [1,1,1,2,2,2,3,3,3,4,4,4,5,5,5,6,6,6,7,7,7,8,8,8,9,9,9,10,10,10,11,11,12,12,12,13,13,14,14,15,15,15,16,16,16,17,17,18,19,19,20,20,20,21,22,22,23,24,24,25,26,26,27,27,27,28,29,29,30,31,31,32,33,33,33,34,34,35,36,37,38,38,39,40,41];
succ = [2,3,4,5,14,16,9,6,15,11,20,23,10,12,13,12,28,7,20,22,8,21,13,31,18,19,32,17,21,30,13,16,17,25,31,29,30,33,26,25,18,24,25,19,21,33,23,26,36,38,29,30,31,27,35,24,36,26,29,41,34,38,33,38,32,32,37,40,34,34,35,39,35,36,37,37,40,39,41,41,39,40,42,42,42];

nUnrels = 416;
unpred = [2,2,2,2,2,2,2,2,2,2,2,2,2,3,3,3,3,3,3,4,4,4,4,4,4,4,4,4,4,4,4,4,4,4,5,5,5,5,5,5,5,5,5,5,5,5,5,5,5,6,6,6,6,6,6,6,6,7,7,7,7,7,7,7,7,7,7,7,7,7,8,8,8,8,8,8,8,8,8,8,8,8,8,8,8,8,8,9,9,9,9,9,9,9,9,9,9,9,9,9,9,9,9,9,9,9,9,9,10,10,10,10,10,10,10,10,10,10,10,10,10,10,10,10,11,11,11,11,11,11,11,11,11,11,11,11,12,12,12,12,12,12,12,12,12,12,12,12,12,12,12,12,12,13,13,13,13,13,13,13,13,13,13,13,13,13,13,13,13,13,13,13,13,13,13,14,14,14,14,14,14,14,14,14,14,14,14,14,14,14,14,14,15,15,15,15,15,15,15,15,15,15,15,15,15,15,15,16,16,16,16,16,16,16,16,16,16,16,16,17,17,17,17,17,17,17,17,17,17,17,17,17,17,17,17,17,18,18,18,18,18,18,18,18,18,18,18,18,18,18,18,18,19,19,19,19,19,19,19,19,19,19,19,19,19,19,19,19,19,20,20,20,20,20,20,20,20,20,20,20,20,21,21,21,21,21,21,21,21,21,21,22,22,22,22,22,22,22,22,22,23,23,23,23,23,23,23,23,23,23,23,23,23,23,23,23,24,24,24,24,24,24,24,24,24,25,25,25,25,25,25,25,25,25,25,25,25,25,25,25,26,26,26,26,26,26,26,26,26,27,27,27,27,27,28,28,28,28,28,28,28,28,28,28,28,29,29,29,29,29,29,29,29,29,30,30,30,30,30,30,30,31,31,31,31,32,32,32,32,32,32,32,32,33,33,33,34,34,34,34,35,35,35,35,35,36,36,36,36,37,37,37,38,39,39,40];
unsucc = [3,4,6,7,8,9,11,15,18,20,22,24,28,4,5,10,11,14,16,5,6,7,8,9,10,12,14,15,17,18,22,24,26,28,6,7,8,9,11,14,15,16,18,19,20,22,24,26,28,9,10,11,14,15,16,18,19,9,10,11,12,14,15,16,17,18,19,23,25,28,9,10,11,12,14,15,16,17,18,19,20,22,23,24,25,26,28,10,11,12,13,14,15,16,17,20,21,22,23,24,25,27,28,29,30,31,33,35,11,12,13,14,15,16,18,19,20,22,24,25,26,28,29,31,12,14,15,17,18,20,22,23,24,26,28,31,13,14,15,16,18,19,20,21,22,24,26,27,28,29,30,32,38,14,15,16,17,18,19,20,21,22,23,24,25,26,27,28,31,32,33,35,36,38,39,15,16,17,18,19,20,21,22,23,24,25,27,28,29,30,31,32,16,17,19,20,21,22,23,27,28,30,31,32,33,35,36,17,18,20,22,23,24,26,28,29,30,31,34,18,19,20,21,22,24,25,26,27,28,29,30,31,32,34,38,40,19,20,21,22,23,24,25,27,28,29,30,31,32,33,35,36,20,21,22,23,24,25,26,27,28,29,30,31,32,33,34,35,37,21,22,23,24,25,26,27,28,32,33,36,38,22,23,24,25,26,28,29,30,31,34,23,25,27,28,30,31,32,33,36,24,25,26,27,28,29,30,31,32,33,34,35,37,38,39,40,25,27,28,30,31,32,33,35,36,26,27,28,29,30,31,32,33,34,35,36,37,38,39,40,27,28,29,30,31,32,33,35,36,28,29,30,31,34,29,30,31,33,34,35,36,37,38,40,41,30,31,32,33,34,35,36,38,39,31,32,33,35,36,38,39,32,33,36,38,33,34,35,36,37,38,40,41,34,38,40,35,36,38,39,36,37,38,40,41,37,38,39,40,38,39,40,41,40,41,41];

USEFUL_RES = [{},
	{2,3,4,6,7,8,9,10,11,12,13,14,16,17,18,19,20,21,22,23,24,25,28,29,30},
	{1,2,3,4,5,6,7,8,9,10,11,12,13,14,15,17,18,20,21,22,23,24,25,26,27,28,29},
	{1,2,3,4,5,6,7,8,10,11,12,13,14,15,16,17,18,19,20,21,22,23,24,25,26,27,28,29,30},
	{1,2,3,4,5,6,7,8,9,10,11,12,13,14,15,17,18,20,21,22,23,24,25,26,27,28,29},
	{1,2,3,4,5,6,7,8,9,10,11,12,13,14,15,17,18,20,21,22,23,24,25,26,27,28,29},
	{1,2,3,4,5,6,7,8,10,11,12,13,14,15,16,17,18,19,20,21,22,23,24,25,26,27,28,29,30},
	{1,2,3,5,6,7,8,9,10,11,12,13,14,15,16,17,19,20,21,22,23,24,25,26,27,28,29,30},
	{1,2,3,4,5,6,7,8,10,11,12,13,14,15,16,17,18,19,20,21,22,23,24,25,26,27,28,29,30},
	{1,2,3,5,6,7,8,9,10,11,12,13,14,15,16,17,19,20,21,22,23,24,25,26,27,28,29,30},
	{1,2,3,4,5,6,7,8,10,11,12,13,14,15,16,17,18,19,20,21,22,23,24,25,26,27,28,29,30},
	{1,2,3,4,5,6,7,8,10,11,12,13,14,15,16,17,18,19,20,21,22,23,24,25,26,27,28,29,30},
	{1,2,3,4,5,6,7,8,10,11,12,13,14,15,16,17,18,19,20,21,22,23,24,25,26,27,28,29,30},
	{1,2,3,5,6,7,8,9,10,11,12,13,14,15,16,17,19,20,21,22,23,24,25,26,27,28,29,30},
	{1,2,3,4,5,6,7,8,10,11,12,13,14,15,16,17,18,19,20,21,22,23,24,25,26,27,28,29,30},
	{2,3,4,6,7,8,9,10,11,12,13,14,16,17,18,19,20,21,22,23,24,25,28,29,30},
	{2,3,4,6,7,8,9,10,11,12,13,14,16,17,18,19,20,21,22,23,24,25,28,29,30},
	{1,2,3,4,5,6,7,8,10,11,12,13,14,15,16,17,18,19,20,21,22,23,24,25,26,27,28,29,30},
	{2,3,4,6,7,8,9,10,11,12,13,14,16,17,18,19,20,21,22,23,24,25,28,29,30},
	{2,3,4,6,7,8,9,10,11,12,13,14,16,17,18,19,20,21,22,23,24,25,28,29,30},
	{2,3,4,6,7,8,9,10,11,12,13,14,16,17,18,19,20,21,22,23,24,25,28,29,30},
	{1,2,3,5,6,7,8,9,10,11,12,13,14,15,16,17,19,20,21,22,23,24,25,26,27,28,29,30},
	{2,3,4,6,7,8,9,10,11,12,13,14,16,17,18,19,20,21,22,23,24,25,28,29,30},
	{2,3,4,6,7,8,9,10,11,12,13,14,16,17,18,19,20,21,22,23,24,25,28,29,30},
	{2,3,4,6,7,8,9,10,11,12,13,14,16,17,18,19,20,21,22,23,24,25,28,29,30},
	{1,2,3,4,5,6,7,8,9,10,11,12,13,14,15,17,18,20,21,22,23,24,25,26,27,28,29},
	{1,2,3,4,5,6,7,8,10,11,12,13,14,15,16,17,18,19,20,21,22,23,24,25,26,27,28,29,30},
	{1,2,3,4,5,6,7,8,10,11,12,13,14,15,16,17,18,19,20,21,22,23,24,25,26,27,28,29,30},
	{2,3,4,6,7,8,9,10,11,12,13,14,16,17,18,19,20,21,22,23,24,25,28,29,30},
	{1,2,3,5,6,7,8,9,10,11,12,13,14,15,16,17,19,20,21,22,23,24,25,26,27,28,29,30},
	{1,2,3,4,5,6,7,8,10,11,12,13,14,15,16,17,18,19,20,21,22,23,24,25,26,27,28,29,30},
	{1,2,3,4,5,6,7,8,9,10,11,12,13,14,15,17,18,20,21,22,23,24,25,26,27,28,29},
	{1,2,3,5,6,7,8,9,10,11,12,13,14,15,16,17,19,20,21,22,23,24,25,26,27,28,29,30},
	{2,3,4,6,7,8,9,10,11,12,13,14,16,17,18,19,20,21,22,23,24,25,28,29,30},
	{1,2,3,5,6,7,8,9,10,11,12,13,14,15,16,17,19,20,21,22,23,24,25,26,27,28,29,30},
	{2,3,4,6,7,8,9,10,11,12,13,14,16,17,18,19,20,21,22,23,24,25,28,29,30},
	{1,2,3,4,5,6,7,8,9,10,11,12,13,14,15,17,18,20,21,22,23,24,25,26,27,28,29},
	{1,2,3,4,5,6,7,8,10,11,12,13,14,15,16,17,18,19,20,21,22,23,24,25,26,27,28,29,30},
	{1,2,3,5,6,7,8,9,10,11,12,13,14,15,16,17,19,20,21,22,23,24,25,26,27,28,29,30},
	{1,2,3,4,5,6,7,8,10,11,12,13,14,15,16,17,18,19,20,21,22,23,24,25,26,27,28,29,30},
	{1,2,3,4,5,6,7,8,10,11,12,13,14,15,16,17,18,19,20,21,22,23,24,25,26,27,28,29,30},
	{}];

POTENTIAL_ACT = [{3,4,5,6,7,8,9,10,11,12,13,14,15,18,22,26,27,28,30,31,32,33,35,37,38,39,40,41},
	{2,3,4,5,6,7,8,9,10,11,12,13,14,15,16,17,18,19,20,21,22,23,24,25,26,27,28,29,30,31,32,33,34,35,36,37,38,39,40,41},
	{2,3,4,5,6,7,8,9,10,11,12,13,14,15,16,17,18,19,20,21,22,23,24,25,26,27,28,29,30,31,32,33,34,35,36,37,38,39,40,41},
	{2,3,4,5,6,7,9,11,12,13,15,16,17,18,19,20,21,23,24,25,26,27,28,29,31,32,34,36,37,38,40,41},
	{3,4,5,6,7,8,9,10,11,12,13,14,15,18,22,26,27,28,30,31,32,33,35,37,38,39,40,41},
	{2,3,4,5,6,7,8,9,10,11,12,13,14,15,16,17,18,19,20,21,22,23,24,25,26,27,28,29,30,31,32,33,34,35,36,37,38,39,40,41},
	{2,3,4,5,6,7,8,9,10,11,12,13,14,15,16,17,18,19,20,21,22,23,24,25,26,27,28,29,30,31,32,33,34,35,36,37,38,39,40,41},
	{2,3,4,5,6,7,8,9,10,11,12,13,14,15,16,17,18,19,20,21,22,23,24,25,26,27,28,29,30,31,32,33,34,35,36,37,38,39,40,41},
	{2,3,5,6,8,10,14,16,17,19,20,21,22,23,24,25,26,29,30,32,33,34,35,36,37,39},
	{2,3,4,5,6,7,8,9,10,11,12,13,14,15,16,17,18,19,20,21,22,23,24,25,26,27,28,29,30,31,32,33,34,35,36,37,38,39,40,41},
	{2,3,4,5,6,7,8,9,10,11,12,13,14,15,16,17,18,19,20,21,22,23,24,25,26,27,28,29,30,31,32,33,34,35,36,37,38,39,40,41},
	{2,3,4,5,6,7,8,9,10,11,12,13,14,15,16,17,18,19,20,21,22,23,24,25,26,27,28,29,30,31,32,33,34,35,36,37,38,39,40,41},
	{2,3,4,5,6,7,8,9,10,11,12,13,14,15,16,17,18,19,20,21,22,23,24,25,26,27,28,29,30,31,32,33,34,35,36,37,38,39,40,41},
	{2,3,4,5,6,7,8,9,10,11,12,13,14,15,16,17,18,19,20,21,22,23,24,25,26,27,28,29,30,31,32,33,34,35,36,37,38,39,40,41},
	{3,4,5,6,7,8,9,10,11,12,13,14,15,18,22,26,27,28,30,31,32,33,35,37,38,39,40,41},
	{2,4,7,8,9,10,11,12,13,14,15,16,17,18,19,20,21,22,23,24,25,27,28,29,30,31,33,34,35,36,38,39,40,41},
	{2,3,4,5,6,7,8,9,10,11,12,13,14,15,16,17,18,19,20,21,22,23,24,25,26,27,28,29,30,31,32,33,34,35,36,37,38,39,40,41},
	{2,3,4,5,6,7,9,11,12,13,15,16,17,18,19,20,21,23,24,25,26,27,28,29,31,32,34,36,37,38,40,41},
	{2,4,7,8,9,10,11,12,13,14,15,16,17,18,19,20,21,22,23,24,25,27,28,29,30,31,33,34,35,36,38,39,40,41},
	{2,3,4,5,6,7,8,9,10,11,12,13,14,15,16,17,18,19,20,21,22,23,24,25,26,27,28,29,30,31,32,33,34,35,36,37,38,39,40,41},
	{2,3,4,5,6,7,8,9,10,11,12,13,14,15,16,17,18,19,20,21,22,23,24,25,26,27,28,29,30,31,32,33,34,35,36,37,38,39,40,41},
	{2,3,4,5,6,7,8,9,10,11,12,13,14,15,16,17,18,19,20,21,22,23,24,25,26,27,28,29,30,31,32,33,34,35,36,37,38,39,40,41},
	{2,3,4,5,6,7,8,9,10,11,12,13,14,15,16,17,18,19,20,21,22,23,24,25,26,27,28,29,30,31,32,33,34,35,36,37,38,39,40,41},
	{2,3,4,5,6,7,8,9,10,11,12,13,14,15,16,17,18,19,20,21,22,23,24,25,26,27,28,29,30,31,32,33,34,35,36,37,38,39,40,41},
	{2,3,4,5,6,7,8,9,10,11,12,13,14,15,16,17,18,19,20,21,22,23,24,25,26,27,28,29,30,31,32,33,34,35,36,37,38,39,40,41},
	{3,4,5,6,7,8,9,10,11,12,13,14,15,18,22,26,27,28,30,31,32,33,35,37,38,39,40,41},
	{3,4,5,6,7,8,9,10,11,12,13,14,15,18,22,26,27,28,30,31,32,33,35,37,38,39,40,41},
	{2,3,4,5,6,7,8,9,10,11,12,13,14,15,16,17,18,19,20,21,22,23,24,25,26,27,28,29,30,31,32,33,34,35,36,37,38,39,40,41},
	{2,3,4,5,6,7,8,9,10,11,12,13,14,15,16,17,18,19,20,21,22,23,24,25,26,27,28,29,30,31,32,33,34,35,36,37,38,39,40,41},
	{2,4,7,8,9,10,11,12,13,14,15,16,17,18,19,20,21,22,23,24,25,27,28,29,30,31,33,34,35,36,38,39,40,41}];
